c colouring generated by benchmark framework
p edge 425 8688
v 1 27
v 2 3
v 3 17
v 4 22
v 5 16
v 6 15
v 7 11
v 8 8
v 9 7
v 10 12
v 11 28
v 12 0
v 13 10
v 14 29
v 15 1
v 16 2
v 17 11
v 18 27
v 19 9
v 20 5
v 21 4
v 22 2
v 23 12
v 24 10
v 25 1
v 26 0
v 27 16
v 28 18
v 29 23
v 30 24
v 31 3
v 32 28
v 33 7
v 34 20
v 35 12
v 36 1
v 37 15
v 38 7
v 39 8
v 40 21
v 41 9
v 42 17
v 43 14
v 44 15
v 45 8
v 46 1
v 47 23
v 48 12
v 49 9
v 50 18
v 51 24
v 52 8
v 53 8
v 54 25
v 55 20
v 56 14
v 57 14
v 58 15
v 59 14
v 60 15
v 61 21
v 62 20
v 63 22
v 64 14
v 65 15
v 66 20
v 67 25
v 68 26
v 69 17
v 70 6
v 71 6
v 72 6
v 73 6
v 74 6
v 75 6
v 76 26
v 77 6
v 78 6
v 79 26
v 80 21
v 81 4
v 82 5
v 83 14
v 84 25
v 85 9
v 86 13
v 87 22
v 88 8
v 89 19
v 90 12
v 91 15
v 92 26
v 93 6
v 94 6
v 95 6
v 96 8
v 97 13
v 98 29
v 99 8
v 100 8
v 101 13
v 102 17
v 103 25
v 104 13
v 105 14
v 106 21
v 107 1
v 108 21
v 109 20
v 110 17
v 111 17
v 112 22
v 113 20
v 114 29
v 115 21
v 116 21
v 117 21
v 118 16
v 119 20
v 120 22
v 121 26
v 122 29
v 123 25
v 124 22
v 125 26
v 126 18
v 127 8
v 128 29
v 129 8
v 130 29
v 131 8
v 132 13
v 133 8
v 134 8
v 135 8
v 136 8
v 137 26
v 138 8
v 139 13
v 140 6
v 141 14
v 142 17
v 143 14
v 144 15
v 145 14
v 146 14
v 147 26
v 148 15
v 149 14
v 150 14
v 151 29
v 152 14
v 153 14
v 154 15
v 155 14
v 156 22
v 157 14
v 158 4
v 159 25
v 160 29
v 161 17
v 162 25
v 163 20
v 164 15
v 165 26
v 166 29
v 167 24
v 168 29
v 169 4
v 170 15
v 171 15
v 172 29
v 173 18
v 174 20
v 175 17
v 176 15
v 177 21
v 178 21
v 179 21
v 180 25
v 181 15
v 182 22
v 183 17
v 184 21
v 185 20
v 186 15
v 187 22
v 188 17
v 189 29
v 190 20
v 191 25
v 192 25
v 193 26
v 194 29
v 195 22
v 196 17
v 197 22
v 198 15
v 199 26
v 200 20
v 201 19
v 202 19
v 203 20
v 204 23
v 205 20
v 206 19
v 207 19
v 208 15
v 209 26
v 210 20
v 211 22
v 212 21
v 213 20
v 214 22
v 215 25
v 216 20
v 217 21
v 218 20
v 219 22
v 220 25
v 221 26
v 222 22
v 223 26
v 224 25
v 225 26
v 226 29
v 227 8
v 228 19
v 229 18
v 230 20
v 231 18
v 232 18
v 233 19
v 234 26
v 235 13
v 236 8
v 237 7
v 238 11
v 239 24
v 240 21
v 241 29
v 242 6
v 243 8
v 244 14
v 245 6
v 246 19
v 247 6
v 248 19
v 249 17
v 250 7
v 251 8
v 252 15
v 253 14
v 254 13
v 255 6
v 256 15
v 257 22
v 258 17
v 259 6
v 260 13
v 261 26
v 262 6
v 263 6
v 264 27
v 265 13
v 266 25
v 267 13
v 268 5
v 269 15
v 270 13
v 271 21
v 272 18
v 273 18
v 274 4
v 275 15
v 276 13
v 277 29
v 278 21
v 279 13
v 280 15
v 281 17
v 282 14
v 283 13
v 284 13
v 285 17
v 286 14
v 287 25
v 288 14
v 289 14
v 290 14
v 291 29
v 292 14
v 293 14
v 294 14
v 295 14
v 296 29
v 297 15
v 298 15
v 299 29
v 300 14
v 301 25
v 302 14
v 303 15
v 304 22
v 305 21
v 306 15
v 307 14
v 308 17
v 309 14
v 310 28
v 311 15
v 312 8
v 313 17
v 314 22
v 315 20
v 316 17
v 317 21
v 318 8
v 319 20
v 320 22
v 321 7
v 322 8
v 323 21
v 324 21
v 325 17
v 326 26
v 327 17
v 328 17
v 329 20
v 330 20
v 331 20
v 332 20
v 333 29
v 334 22
v 335 25
v 336 20
v 337 22
v 338 22
v 339 20
v 340 18
v 341 19
v 342 18
v 343 28
v 344 21
v 345 8
v 346 8
v 347 8
v 348 21
v 349 22
v 350 21
v 351 8
v 352 25
v 353 21
v 354 20
v 355 21
v 356 21
v 357 26
v 358 25
v 359 6
v 360 29
v 361 29
v 362 19
v 363 29
v 364 19
v 365 14
v 366 19
v 367 8
v 368 15
v 369 17
v 370 14
v 371 20
v 372 15
v 373 21
v 374 26
v 375 6
v 376 17
v 377 29
v 378 21
v 379 20
v 380 16
v 381 20
v 382 20
v 383 20
v 384 22
v 385 22
v 386 6
v 387 18
v 388 26
v 389 21
v 390 29
v 391 15
v 392 20
v 393 14
v 394 13
v 395 29
v 396 14
v 397 14
v 398 20
v 399 23
v 400 17
v 401 21
v 402 18
v 403 19
v 404 18
v 405 11
v 406 20
v 407 26
v 408 13
v 409 13
v 410 14
v 411 13
v 412 14
v 413 15
v 414 15
v 415 8
v 416 17
v 417 18
v 418 13
v 419 20
v 420 13
v 421 8
v 422 5
v 423 8
v 424 15
v 425 29
